QPLIB_2540
LCQ
minimize
498 # number of variables
551 # number of constraints
0.0 # default value for linear coefficients in objective
5 # number of non-default linear coefficients in objective
1 1.0
2 1.0
3 1.0
4 1.0
5 1.0
0.0 # objective constant
210 # number of quadratic terms in all constraints
342 -2147483648 1 2.0
343 39855185 1 2.0
344 1 1 2.0
345 39859617 1 2.0
346 1 1 2.0
347 39864049 1042 2.0
348 1 1 2.0
349 39868481 39852961 2.0
350 1 1 2.0
351 39870705 39855185 2.0
352 1 1 2.0
353 39872929 39859617 2.0
354 1 1 2.0
355 39875153 39864049 2.0
356 1 1 2.0
357 39881809 39868481 2.0
358 1 1 2.0
359 39884033 39870705 2.0
360 1 1 2.0
361 39886257 39872929 2.0
362 1 1 2.0
363 39888481 39875153 2.0
364 1 1 2.0
365 39890705 39881809 2.0
366 1 1 2.0
367 39892929 39884033 2.0
368 1 1 2.0
369 39895153 39886257 2.0
370 1 1 2.0
371 39897377 39888481 2.0
372 1 1 2.0
373 39901809 39890705 2.0
374 1 1 2.0
375 39906241 39892929 2.0
376 1 1 2.0
377 39910673 39895153 2.0
378 1 1 2.0
379 39915105 39897377 2.0
380 1 1 2.0
381 39919537 39901809 2.0
382 1 1 2.0
383 39921553 39906241 2.0
384 1 1 2.0
385 39925569 39910673 2.0
386 1 1 2.0
387 39929585 39915105 2.0
388 1 1 2.0
389 39933601 39919537 2.0
390 1 1 2.0
391 39937617 39921553 2.0
392 1 1 2.0
393 39939633 39925569 2.0
394 1 1 2.0
395 39941649 39929585 2.0
396 1 1 2.0
397 39943665 39933601 2.0
398 1 1 2.0
399 39947681 39937617 2.0
400 1 1 2.0
401 39951697 39939633 2.0
402 1 1 2.0
403 39955713 39941649 2.0
404 1 1 2.0
405 39959729 39943665 2.0
406 1 1 2.0
407 39961745 39947681 2.0
408 1 1 2.0
409 39963761 39951697 2.0
410 1 1 2.0
411 39965777 39955713 2.0
412 1 1 2.0
413 39967793 39959729 2.0
414 1 1 2.0
415 39969809 39961745 2.0
416 1 1 2.0
417 39973825 39963761 2.0
418 1 1 2.0
419 39977841 39965777 2.0
420 1 1 2.0
421 40507873 39967793 2.0
422 1 1 2.0
423 39969809 39835441 2.0
424 1 1 2.0
425 40514625 39973825 2.0
426 1 1 2.0
427 40532337 39977841 2.0
428 1 1 2.0
429 40536769 40507873 2.0
430 1 1 2.0
431 40541201 39835441 2.0
432 1 1 2.0
433 40545633 40514625 2.0
434 1 1 2.0
435 40550065 40532337 2.0
436 1 1 2.0
437 40554081 40536769 2.0
438 1 1 2.0
439 40562097 40541201 2.0
440 1 1 2.0
441 40566113 40545633 2.0
442 1 1 2.0
443 40572145 40550065 2.0
444 1 1 2.0
445 40572145 40554081 2.0
446 1 1 2.0
447 40562097 1 2.0
448 1 1 2.0
449 40566113 1 2.0
450 1 1 2.0
451 40572145 39834929 2.0
452 1 1 2.0
453 40572145 0 2.0
454 1 0 2.0
455 39835041 1 2.0
456 1 1 2.0
457 39834945 1 2.0
458 1 1 2.0
459 39834929 1 2.0
460 1 1 2.0
461 39835009 0 2.0
462 1 0 2.0
463 39835041 2112 2.0
464 6 1 2.0
465 39834945 0 2.0
466 257 1 2.0
467 16777217 1 2.0
468 16777217 1 2.0
469 39835009 16843010 2.0
470 258 1 2.0
471 2112 -1463888159 2.0
472 32521 6 2.0
473 1 0 2.0
474 257 1 2.0
475 16777217 1 2.0
476 16777217 1 2.0
477 16843010 1 2.0
478 258 1 2.0
479 1 -1463888159 2.0
480 32521 1 2.0
481 1 1 2.0
482 1 1 2.0
483 1 1 2.0
484 1 1 2.0
485 1 1 2.0
486 1 1 2.0
487 1 1 2.0
488 1 1 2.0
489 1 1 2.0
490 1 1 2.0
491 1 1 2.0
492 1 1 2.0
493 1 1 2.0
494 1 1 2.0
495 1 1 2.0
496 1 1 2.0
497 1 1 2.0
498 1 1 2.0
499 33 1 2.0
500 1 1 2.0
501 39835361 1 2.0
502 1 1 2.0
503 1970417268 1 2.0
504 32623 1 2.0
505 1 1 2.0
506 1 1 2.0
507 34 33 2.0
508 1 1 2.0
509 39857137 39835361 2.0
510 1 1 2.0
511 1970417268 -1463882887 2.0
512 32623 32521 2.0
513 705 1 2.0
514 1 1 2.0
515 49 34 2.0
516 1 1 2.0
517 39857137 39836097 2.0
518 1 1 2.0
519 1651076196 -1463882887 2.0
520 1932407863 32521 2.0
521 1851859056 705 2.0
522 540090485 1 2.0
523 49 49 2.0
524 1 1 2.0
525 540090417 39836097 2.0
526 540090417 1 2.0
527 1651076196 962 2.0
528 1932407863 1 2.0
529 1851859056 -1463882887 2.0
530 540090485 32521 2.0
531 39852945 49 2.0
532 1 1 2.0
533 540090417 1 2.0
534 540090417 1 2.0
535 962 1 2.0
536 1 1 2.0
537 1 -1463882887 2.0
538 32521 1 2.0
539 39852945 1 2.0
540 1 1 2.0
541 1 1 2.0
542 1 1 2.0
543 1 1 2.0
544 1 1 2.0
545 1 1 2.0
546 1 1 2.0
547 39835409 1 2.0
548 1 1 2.0
549 39835441 1 2.0
550 1 1 2.0
551 1 1 2.0
1850 # number of linear terms in all constraints
1 6 -1.0
1 7 -1.0
1 8 -1.0
1 9 -1.0
1 10 -1.0
1 11 -1.0
2 12 -1.0
2 13 -1.0
2 14 -1.0
2 15 -1.0
2 16 -1.0
2 17 -1.0
3 18 -1.0
3 19 -1.0
3 20 -1.0
3 21 -1.0
3 22 -1.0
3 23 -1.0
4 24 -1.0
4 25 -1.0
4 26 -1.0
4 27 -1.0
4 28 -1.0
4 29 -1.0
5 30 -1.0
5 31 -1.0
5 32 -1.0
5 33 -1.0
5 34 -1.0
5 35 -1.0
6 1 1.0
6 7 -1.0
6 13 -1.0
6 19 -1.0
6 25 -1.0
6 31 -1.0
6 36 -1.0
6 37 -1.0
6 38 -1.0
6 39 -1.0
6 40 -1.0
7 2 1.0
7 8 -1.0
7 14 -1.0
7 20 -1.0
7 26 -1.0
7 32 -1.0
7 41 -1.0
7 42 -1.0
7 43 -1.0
7 44 -1.0
7 45 -1.0
8 3 1.0
8 9 -1.0
8 15 -1.0
8 21 -1.0
8 27 -1.0
8 33 -1.0
8 46 -1.0
8 47 -1.0
8 48 -1.0
8 49 -1.0
8 50 -1.0
9 4 1.0
9 10 -1.0
9 16 -1.0
9 22 -1.0
9 28 -1.0
9 34 -1.0
9 51 -1.0
9 52 -1.0
9 53 -1.0
9 54 -1.0
9 55 -1.0
10 5 1.0
10 11 -1.0
10 17 -1.0
10 23 -1.0
10 29 -1.0
10 35 -1.0
10 56 -1.0
10 57 -1.0
10 58 -1.0
10 59 -1.0
10 60 -1.0
11 1 1.0
11 36 -1.0
11 41 -1.0
11 46 -1.0
11 51 -1.0
11 56 -1.0
11 61 -1.0
12 2 1.0
12 37 -1.0
12 42 -1.0
12 47 -1.0
12 52 -1.0
12 57 -1.0
12 62 -1.0
13 3 1.0
13 38 -1.0
13 43 -1.0
13 48 -1.0
13 53 -1.0
13 58 -1.0
13 63 -1.0
14 4 1.0
14 39 -1.0
14 44 -1.0
14 49 -1.0
14 54 -1.0
14 59 -1.0
14 64 -1.0
15 5 1.0
15 40 -1.0
15 45 -1.0
15 50 -1.0
15 55 -1.0
15 60 -1.0
15 65 -1.0
16 6 -1.0
16 12 -1.0
16 18 -1.0
16 24 -1.0
16 30 -1.0
16 61 -1.0
16 62 -1.0
16 63 -1.0
16 64 -1.0
16 65 -1.0
16 66 1.0
17 67 -1.0
17 68 -1.0
17 69 -1.0
17 70 -1.0
17 71 -1.0
17 72 -1.0
18 73 -1.0
18 74 -1.0
18 75 -1.0
18 76 -1.0
18 77 -1.0
18 78 -1.0
19 79 -1.0
19 80 -1.0
19 81 -1.0
19 82 -1.0
19 83 -1.0
19 84 -1.0
20 85 -1.0
20 86 -1.0
20 87 -1.0
20 88 -1.0
20 89 -1.0
20 90 -1.0
21 91 -1.0
21 92 -1.0
21 93 -1.0
21 94 -1.0
21 95 -1.0
21 96 -1.0
22 97 -1.0
22 98 -1.0
22 99 -1.0
22 100 -1.0
22 101 -1.0
22 102 -1.0
23 103 -1.0
23 104 -1.0
23 105 -1.0
23 106 -1.0
23 107 -1.0
23 108 -1.0
24 109 -1.0
24 110 -1.0
24 111 -1.0
24 112 -1.0
24 113 -1.0
24 114 -1.0
25 115 -1.0
25 116 -1.0
25 117 -1.0
25 118 -1.0
25 119 -1.0
25 120 -1.0
26 121 -1.0
26 122 -1.0
26 123 -1.0
26 124 -1.0
26 125 -1.0
26 126 -1.0
27 127 -1.0
27 128 -1.0
27 129 -1.0
27 130 -1.0
27 131 -1.0
27 132 -1.0
28 133 -1.0
28 134 -1.0
28 135 -1.0
28 136 -1.0
28 137 -1.0
28 138 -1.0
29 139 -1.0
29 140 -1.0
29 141 -1.0
29 142 -1.0
29 143 -1.0
29 144 -1.0
30 145 -1.0
30 146 -1.0
30 147 -1.0
30 148 -1.0
30 149 -1.0
30 150 -1.0
31 151 -1.0
31 152 -1.0
31 153 -1.0
31 154 -1.0
31 155 -1.0
31 156 -1.0
32 157 -1.0
32 158 -1.0
32 159 -1.0
32 160 -1.0
32 161 -1.0
32 162 -1.0
33 163 -1.0
33 164 -1.0
33 165 -1.0
33 166 -1.0
33 167 -1.0
33 168 -1.0
34 169 -1.0
34 170 -1.0
34 171 -1.0
34 172 -1.0
34 173 -1.0
34 174 -1.0
35 175 -1.0
35 176 -1.0
35 177 -1.0
35 178 -1.0
35 179 -1.0
35 180 -1.0
36 181 -1.0
36 182 -1.0
36 183 -1.0
36 184 -1.0
36 185 -1.0
36 186 -1.0
37 187 -1.0
37 188 -1.0
37 189 -1.0
37 190 -1.0
37 191 -1.0
37 192 -1.0
38 193 -1.0
38 194 -1.0
38 195 -1.0
38 196 -1.0
38 197 -1.0
38 198 -1.0
39 199 -1.0
39 200 -1.0
39 201 -1.0
39 202 -1.0
39 203 -1.0
39 204 -1.0
40 205 -1.0
40 206 -1.0
40 207 -1.0
40 208 -1.0
40 209 -1.0
40 210 -1.0
41 211 -1.0
41 212 -1.0
41 213 -1.0
41 214 -1.0
41 215 -1.0
41 216 -1.0
42 217 -1.0
42 218 -1.0
42 219 -1.0
42 220 -1.0
42 221 -1.0
42 222 -1.0
43 223 -1.0
43 224 -1.0
43 225 -1.0
43 226 -1.0
43 227 -1.0
43 228 -1.0
44 68 -1.0
44 229 20900.0
45 74 -1.0
45 229 9500.0
46 80 -1.0
46 229 9500.0
47 86 -1.0
47 229 3800.0
48 92 -1.0
48 229 15200.0
49 98 -1.0
49 229 1900.0
50 69 -1.0
50 230 20900.0
51 75 -1.0
51 230 9500.0
52 81 -1.0
52 230 9500.0
53 87 -1.0
53 230 3800.0
54 93 -1.0
54 230 15200.0
55 99 -1.0
55 230 1900.0
56 70 -1.0
56 231 20900.0
57 76 -1.0
57 231 9500.0
58 82 -1.0
58 231 9500.0
59 88 -1.0
59 231 3800.0
60 94 -1.0
60 231 15200.0
61 100 -1.0
61 231 1900.0
62 71 -1.0
62 232 20900.0
63 77 -1.0
63 232 9500.0
64 83 -1.0
64 232 9500.0
65 89 -1.0
65 232 3800.0
66 95 -1.0
66 232 15200.0
67 101 -1.0
67 232 1900.0
68 72 -1.0
68 233 20900.0
69 78 -1.0
69 233 9500.0
70 84 -1.0
70 233 9500.0
71 90 -1.0
71 233 3800.0
72 96 -1.0
72 233 15200.0
73 102 -1.0
73 233 1900.0
74 104 -1.0
74 234 280.0
75 110 -1.0
75 234 700.0
76 116 -1.0
76 234 2100.0
77 122 -1.0
77 234 6370.0
78 128 -1.0
78 234 1400.0
79 105 -1.0
79 235 280.0
80 111 -1.0
80 235 700.0
81 117 -1.0
81 235 2100.0
82 123 -1.0
82 235 6370.0
83 129 -1.0
83 235 1400.0
84 106 -1.0
84 236 280.0
85 112 -1.0
85 236 700.0
86 118 -1.0
86 236 2100.0
87 124 -1.0
87 236 6370.0
88 130 -1.0
88 236 1400.0
89 107 -1.0
89 237 280.0
90 113 -1.0
90 237 700.0
91 119 -1.0
91 237 2100.0
92 125 -1.0
92 237 6370.0
93 131 -1.0
93 237 1400.0
94 108 -1.0
94 238 280.0
95 114 -1.0
95 238 700.0
96 120 -1.0
96 238 2100.0
97 126 -1.0
97 238 6370.0
98 132 -1.0
98 238 1400.0
99 134 -1.0
99 239 1600.0
100 140 -1.0
100 239 1760.0
101 146 -1.0
101 239 1600.0
102 152 -1.0
102 239 4000.0
103 158 -1.0
103 239 1200.0
104 135 -1.0
104 240 1600.0
105 141 -1.0
105 240 1760.0
106 147 -1.0
106 240 1600.0
107 153 -1.0
107 240 4000.0
108 159 -1.0
108 240 1200.0
109 136 -1.0
109 241 1600.0
110 142 -1.0
110 241 1760.0
111 148 -1.0
111 241 1600.0
112 154 -1.0
112 241 4000.0
113 160 -1.0
113 241 1200.0
114 137 -1.0
114 242 1600.0
115 143 -1.0
115 242 1760.0
116 149 -1.0
116 242 1600.0
117 155 -1.0
117 242 4000.0
118 161 -1.0
118 242 1200.0
119 138 -1.0
119 243 1600.0
120 144 -1.0
120 243 1760.0
121 150 -1.0
121 243 1600.0
122 156 -1.0
122 243 4000.0
123 162 -1.0
123 243 1200.0
124 164 -1.0
124 244 360.0
125 170 -1.0
125 244 3060.0
126 176 -1.0
126 244 3000.0
127 182 -1.0
127 244 1200.0
128 188 -1.0
128 244 4680.0
129 194 -1.0
129 244 600.0
130 165 -1.0
130 245 360.0
131 171 -1.0
131 245 3060.0
132 177 -1.0
132 245 3000.0
133 183 -1.0
133 245 1200.0
134 189 -1.0
134 245 4680.0
135 195 -1.0
135 245 600.0
136 166 -1.0
136 246 360.0
137 172 -1.0
137 246 3060.0
138 178 -1.0
138 246 3000.0
139 184 -1.0
139 246 1200.0
140 190 -1.0
140 246 4680.0
141 196 -1.0
141 246 600.0
142 167 -1.0
142 247 360.0
143 173 -1.0
143 247 3060.0
144 179 -1.0
144 247 3000.0
145 185 -1.0
145 247 1200.0
146 191 -1.0
146 247 4680.0
147 197 -1.0
147 247 600.0
148 168 -1.0
148 248 360.0
149 174 -1.0
149 248 3060.0
150 180 -1.0
150 248 3000.0
151 186 -1.0
151 248 1200.0
152 192 -1.0
152 248 4680.0
153 198 -1.0
153 248 600.0
154 200 -1.0
154 249 6800.0
155 206 -1.0
155 249 2890.0
156 212 -1.0
156 249 1700.0
157 218 -1.0
157 249 5100.0
158 224 -1.0
158 249 15300.0
159 201 -1.0
159 250 6800.0
160 207 -1.0
160 250 2890.0
161 213 -1.0
161 250 1700.0
162 219 -1.0
162 250 5100.0
163 225 -1.0
163 250 15300.0
164 202 -1.0
164 251 6800.0
165 208 -1.0
165 251 2890.0
166 214 -1.0
166 251 1700.0
167 220 -1.0
167 251 5100.0
168 226 -1.0
168 251 15300.0
169 203 -1.0
169 252 6800.0
170 209 -1.0
170 252 2890.0
171 215 -1.0
171 252 1700.0
172 221 -1.0
172 252 5100.0
173 227 -1.0
173 252 15300.0
174 204 -1.0
174 253 6800.0
175 210 -1.0
175 253 2890.0
176 216 -1.0
176 253 1700.0
177 222 -1.0
177 253 5100.0
178 228 -1.0
178 253 15300.0
179 67 -1.0
179 254 20900.0
180 73 -1.0
180 254 9500.0
181 79 -1.0
181 254 9500.0
182 85 -1.0
182 254 3800.0
183 91 -1.0
183 254 15200.0
184 97 -1.0
184 254 1900.0
185 103 -1.0
185 255 280.0
186 109 -1.0
186 255 700.0
187 115 -1.0
187 255 2100.0
188 121 -1.0
188 255 6370.0
189 127 -1.0
189 255 1400.0
190 133 -1.0
190 256 1600.0
191 139 -1.0
191 256 1760.0
192 145 -1.0
192 256 1600.0
193 151 -1.0
193 256 4000.0
194 157 -1.0
194 256 1200.0
195 163 -1.0
195 257 360.0
196 169 -1.0
196 257 3060.0
197 175 -1.0
197 257 3000.0
198 181 -1.0
198 257 1200.0
199 187 -1.0
199 257 4680.0
200 193 -1.0
200 257 600.0
201 199 -1.0
201 258 6800.0
202 205 -1.0
202 258 2890.0
203 211 -1.0
203 258 1700.0
204 217 -1.0
204 258 5100.0
205 223 -1.0
205 258 15300.0
206 7 -1.0
206 229 19.0
207 8 -1.0
207 230 19.0
208 9 -1.0
208 231 19.0
209 10 -1.0
209 232 19.0
210 11 -1.0
210 233 19.0
211 13 -1.0
211 234 7.0
212 14 -1.0
212 235 7.0
213 15 -1.0
213 236 7.0
214 16 -1.0
214 237 7.0
215 17 -1.0
215 238 7.0
216 19 -1.0
216 239 8.0
217 20 -1.0
217 240 8.0
218 21 -1.0
218 241 8.0
219 22 -1.0
219 242 8.0
220 23 -1.0
220 243 8.0
221 25 -1.0
221 244 6.0
222 26 -1.0
222 245 6.0
223 27 -1.0
223 246 6.0
224 28 -1.0
224 247 6.0
225 29 -1.0
225 248 6.0
226 31 -1.0
226 249 17.0
227 32 -1.0
227 250 17.0
228 33 -1.0
228 251 17.0
229 34 -1.0
229 252 17.0
230 35 -1.0
230 253 17.0
231 6 -1.0
231 254 19.0
232 12 -1.0
232 255 7.0
233 18 -1.0
233 256 8.0
234 24 -1.0
234 257 6.0
235 30 -1.0
235 258 17.0
236 229 1.0
236 230 1.0
236 231 1.0
236 232 1.0
236 233 1.0
236 254 1.0
237 234 1.0
237 235 1.0
237 236 1.0
237 237 1.0
237 238 1.0
237 255 1.0
238 239 1.0
238 240 1.0
238 241 1.0
238 242 1.0
238 243 1.0
238 256 1.0
239 244 1.0
239 245 1.0
239 246 1.0
239 247 1.0
239 248 1.0
239 257 1.0
240 249 1.0
240 250 1.0
240 251 1.0
240 252 1.0
240 253 1.0
240 258 1.0
241 1 -1100.0
241 68 1.0
241 104 1.0
241 134 1.0
241 164 1.0
241 200 1.0
241 259 1.0
241 260 1.0
241 261 1.0
241 262 1.0
241 263 1.0
242 1 -1100.0
242 74 1.0
242 140 1.0
242 170 1.0
242 206 1.0
242 264 1.0
242 265 1.0
242 266 1.0
242 267 1.0
242 268 1.0
243 1 -1100.0
243 80 1.0
243 110 1.0
243 146 1.0
243 176 1.0
243 212 1.0
243 269 1.0
243 270 1.0
243 271 1.0
243 272 1.0
243 273 1.0
244 1 -1100.0
244 86 1.0
244 116 1.0
244 152 1.0
244 182 1.0
244 218 1.0
244 274 1.0
244 275 1.0
244 276 1.0
244 277 1.0
244 278 1.0
245 1 -1100.0
245 92 1.0
245 122 1.0
245 158 1.0
245 188 1.0
245 224 1.0
245 279 1.0
245 280 1.0
245 281 1.0
245 282 1.0
245 283 1.0
246 1 -1100.0
246 98 1.0
246 128 1.0
246 194 1.0
246 284 1.0
246 285 1.0
246 286 1.0
246 287 1.0
246 288 1.0
247 2 -1100.0
247 69 1.0
247 105 1.0
247 135 1.0
247 165 1.0
247 201 1.0
247 289 1.0
247 290 1.0
247 291 1.0
247 292 1.0
247 293 1.0
248 2 -1100.0
248 75 1.0
248 141 1.0
248 171 1.0
248 207 1.0
248 294 1.0
248 295 1.0
248 296 1.0
248 297 1.0
248 298 1.0
249 2 -1100.0
249 81 1.0
249 111 1.0
249 147 1.0
249 177 1.0
249 213 1.0
249 299 1.0
249 300 1.0
249 301 1.0
249 302 1.0
249 303 1.0
250 2 -1100.0
250 87 1.0
250 117 1.0
250 153 1.0
250 183 1.0
250 219 1.0
250 304 1.0
250 305 1.0
250 306 1.0
250 307 1.0
250 308 1.0
251 2 -1100.0
251 93 1.0
251 123 1.0
251 159 1.0
251 189 1.0
251 225 1.0
251 309 1.0
251 310 1.0
251 311 1.0
251 312 1.0
251 313 1.0
252 2 -1100.0
252 99 1.0
252 129 1.0
252 195 1.0
252 314 1.0
252 315 1.0
252 316 1.0
252 317 1.0
252 318 1.0
253 3 -1100.0
253 70 1.0
253 106 1.0
253 136 1.0
253 166 1.0
253 202 1.0
253 319 1.0
253 320 1.0
253 321 1.0
253 322 1.0
253 323 1.0
254 3 -1100.0
254 76 1.0
254 142 1.0
254 172 1.0
254 208 1.0
254 324 1.0
254 325 1.0
254 326 1.0
254 327 1.0
254 328 1.0
255 3 -1100.0
255 82 1.0
255 112 1.0
255 148 1.0
255 178 1.0
255 214 1.0
255 329 1.0
255 330 1.0
255 331 1.0
255 332 1.0
255 333 1.0
256 3 -1100.0
256 88 1.0
256 118 1.0
256 154 1.0
256 184 1.0
256 220 1.0
256 334 1.0
256 335 1.0
256 336 1.0
256 337 1.0
256 338 1.0
257 3 -1100.0
257 94 1.0
257 124 1.0
257 160 1.0
257 190 1.0
257 226 1.0
257 339 1.0
257 340 1.0
257 341 1.0
257 342 1.0
257 343 1.0
258 3 -1100.0
258 100 1.0
258 130 1.0
258 196 1.0
258 344 1.0
258 345 1.0
258 346 1.0
258 347 1.0
258 348 1.0
259 4 -1100.0
259 71 1.0
259 107 1.0
259 137 1.0
259 167 1.0
259 203 1.0
259 349 1.0
259 350 1.0
259 351 1.0
259 352 1.0
259 353 1.0
260 4 -1100.0
260 77 1.0
260 143 1.0
260 173 1.0
260 209 1.0
260 354 1.0
260 355 1.0
260 356 1.0
260 357 1.0
260 358 1.0
261 4 -1100.0
261 83 1.0
261 113 1.0
261 149 1.0
261 179 1.0
261 215 1.0
261 359 1.0
261 360 1.0
261 361 1.0
261 362 1.0
261 363 1.0
262 4 -1100.0
262 89 1.0
262 119 1.0
262 155 1.0
262 185 1.0
262 221 1.0
262 364 1.0
262 365 1.0
262 366 1.0
262 367 1.0
262 368 1.0
263 4 -1100.0
263 95 1.0
263 125 1.0
263 161 1.0
263 191 1.0
263 227 1.0
263 369 1.0
263 370 1.0
263 371 1.0
263 372 1.0
263 373 1.0
264 4 -1100.0
264 101 1.0
264 131 1.0
264 197 1.0
264 374 1.0
264 375 1.0
264 376 1.0
264 377 1.0
264 378 1.0
265 5 -1100.0
265 72 1.0
265 108 1.0
265 138 1.0
265 168 1.0
265 204 1.0
265 379 1.0
265 380 1.0
265 381 1.0
265 382 1.0
265 383 1.0
266 5 -1100.0
266 78 1.0
266 144 1.0
266 174 1.0
266 210 1.0
266 384 1.0
266 385 1.0
266 386 1.0
266 387 1.0
266 388 1.0
267 5 -1100.0
267 84 1.0
267 114 1.0
267 150 1.0
267 180 1.0
267 216 1.0
267 389 1.0
267 390 1.0
267 391 1.0
267 392 1.0
267 393 1.0
268 5 -1100.0
268 90 1.0
268 120 1.0
268 156 1.0
268 186 1.0
268 222 1.0
268 394 1.0
268 395 1.0
268 396 1.0
268 397 1.0
268 398 1.0
269 5 -1100.0
269 96 1.0
269 126 1.0
269 162 1.0
269 192 1.0
269 228 1.0
269 399 1.0
269 400 1.0
269 401 1.0
269 402 1.0
269 403 1.0
270 5 -1100.0
270 102 1.0
270 132 1.0
270 198 1.0
270 404 1.0
270 405 1.0
270 406 1.0
270 407 1.0
270 408 1.0
271 68 0.01
271 104 0.01
271 134 0.01
271 164 0.01
271 200 0.01
271 259 0.01
271 260 0.01
271 261 0.01
271 262 0.01
271 263 0.01
271 409 -1.0
272 74 1.0
272 140 1.0
272 170 1.0
272 206 1.0
272 264 1.0
272 265 1.0
272 266 1.0
272 267 1.0
272 268 1.0
272 410 -1.0
273 80 1.0
273 110 1.0
273 146 1.0
273 176 1.0
273 212 1.0
273 269 1.0
273 270 1.0
273 271 1.0
273 272 1.0
273 273 1.0
273 411 -1.0
274 86 1.0
274 116 1.0
274 152 1.0
274 182 1.0
274 218 1.0
274 274 1.0
274 275 1.0
274 276 1.0
274 277 1.0
274 278 1.0
274 412 -1.0
275 92 1.0
275 122 1.0
275 158 1.0
275 188 1.0
275 224 1.0
275 279 1.0
275 280 1.0
275 281 1.0
275 282 1.0
275 283 1.0
275 413 -1.0
276 98 1.0
276 128 1.0
276 194 1.0
276 284 1.0
276 285 1.0
276 286 1.0
276 287 1.0
276 288 1.0
276 414 -1.0
277 69 1.0
277 105 1.0
277 135 1.0
277 165 1.0
277 201 1.0
277 289 1.0
277 290 1.0
277 291 1.0
277 292 1.0
277 293 1.0
277 415 -1.0
278 75 0.01
278 141 0.01
278 171 0.01
278 207 0.01
278 294 0.01
278 295 0.01
278 296 0.01
278 297 0.01
278 298 0.01
278 416 -1.0
279 81 1.0
279 111 1.0
279 147 1.0
279 177 1.0
279 213 1.0
279 299 1.0
279 300 1.0
279 301 1.0
279 302 1.0
279 303 1.0
279 417 -1.0
280 87 1.0
280 117 1.0
280 153 1.0
280 183 1.0
280 219 1.0
280 304 1.0
280 305 1.0
280 306 1.0
280 307 1.0
280 308 1.0
280 418 -1.0
281 93 1.0
281 123 1.0
281 159 1.0
281 189 1.0
281 225 1.0
281 309 1.0
281 310 1.0
281 311 1.0
281 312 1.0
281 313 1.0
281 419 -1.0
282 99 1.0
282 129 1.0
282 195 1.0
282 314 1.0
282 315 1.0
282 316 1.0
282 317 1.0
282 318 1.0
282 420 -1.0
283 70 1.0
283 106 1.0
283 136 1.0
283 166 1.0
283 202 1.0
283 319 1.0
283 320 1.0
283 321 1.0
283 322 1.0
283 323 1.0
283 421 -1.0
284 76 1.0
284 142 1.0
284 172 1.0
284 208 1.0
284 324 1.0
284 325 1.0
284 326 1.0
284 327 1.0
284 328 1.0
284 422 -1.0
285 82 0.01
285 112 0.01
285 148 0.01
285 178 0.01
285 214 0.01
285 329 0.01
285 330 0.01
285 331 0.01
285 332 0.01
285 333 0.01
285 423 -1.0
286 88 1.0
286 118 1.0
286 154 1.0
286 184 1.0
286 220 1.0
286 334 1.0
286 335 1.0
286 336 1.0
286 337 1.0
286 338 1.0
286 424 -1.0
287 94 1.0
287 124 1.0
287 160 1.0
287 190 1.0
287 226 1.0
287 339 1.0
287 340 1.0
287 341 1.0
287 342 1.0
287 343 1.0
287 425 -1.0
288 100 1.0
288 130 1.0
288 196 1.0
288 344 1.0
288 345 1.0
288 346 1.0
288 347 1.0
288 348 1.0
288 426 -1.0
289 71 1.0
289 107 1.0
289 137 1.0
289 167 1.0
289 203 1.0
289 349 1.0
289 350 1.0
289 351 1.0
289 352 1.0
289 353 1.0
289 427 -1.0
290 77 1.0
290 143 1.0
290 173 1.0
290 209 1.0
290 354 1.0
290 355 1.0
290 356 1.0
290 357 1.0
290 358 1.0
290 428 -1.0
291 83 1.0
291 113 1.0
291 149 1.0
291 179 1.0
291 215 1.0
291 359 1.0
291 360 1.0
291 361 1.0
291 362 1.0
291 363 1.0
291 429 -1.0
292 89 0.01
292 119 0.01
292 155 0.01
292 185 0.01
292 221 0.01
292 364 0.01
292 365 0.01
292 366 0.01
292 367 0.01
292 368 0.01
292 430 -1.0
293 95 0.1
293 125 0.1
293 161 0.1
293 191 0.1
293 227 0.1
293 369 0.1
293 370 0.1
293 371 0.1
293 372 0.1
293 373 0.1
293 431 -1.0
294 101 1.0
294 131 1.0
294 197 1.0
294 374 1.0
294 375 1.0
294 376 1.0
294 377 1.0
294 378 1.0
294 432 -1.0
295 72 1.0
295 108 1.0
295 138 1.0
295 168 1.0
295 204 1.0
295 379 1.0
295 380 1.0
295 381 1.0
295 382 1.0
295 383 1.0
295 433 -1.0
296 78 1.0
296 144 1.0
296 174 1.0
296 210 1.0
296 384 1.0
296 385 1.0
296 386 1.0
296 387 1.0
296 388 1.0
296 434 -1.0
297 84 1.0
297 114 1.0
297 150 1.0
297 180 1.0
297 216 1.0
297 389 1.0
297 390 1.0
297 391 1.0
297 392 1.0
297 393 1.0
297 435 -1.0
298 90 1.0
298 120 1.0
298 156 1.0
298 186 1.0
298 222 1.0
298 394 1.0
298 395 1.0
298 396 1.0
298 397 1.0
298 398 1.0
298 436 -1.0
299 96 0.01
299 126 0.01
299 162 0.01
299 192 0.01
299 228 0.01
299 399 0.01
299 400 0.01
299 401 0.01
299 402 0.01
299 403 0.01
299 437 -1.0
300 102 0.01
300 132 0.01
300 198 0.01
300 404 0.01
300 405 0.01
300 406 0.01
300 407 0.01
300 408 0.01
300 438 -1.0
301 259 -1.0
301 289 -1.0
301 319 -1.0
301 349 -1.0
301 379 -1.0
301 409 1.0
301 439 -1.0
302 264 -1.0
302 294 -1.0
302 324 -1.0
302 354 -1.0
302 384 -1.0
302 410 1.0
302 440 -1.0
303 269 -1.0
303 299 -1.0
303 329 -1.0
303 359 -1.0
303 389 -1.0
303 411 1.0
303 441 -1.0
304 274 -1.0
304 304 -1.0
304 334 -1.0
304 364 -1.0
304 394 -1.0
304 412 1.0
304 442 -1.0
305 279 -1.0
305 309 -1.0
305 339 -1.0
305 369 -1.0
305 399 -1.0
305 413 1.0
305 443 -1.0
306 284 -1.0
306 314 -1.0
306 344 -1.0
306 374 -1.0
306 404 -1.0
306 414 1.0
306 444 -1.0
307 260 -1.0
307 290 -1.0
307 320 -1.0
307 350 -1.0
307 380 -1.0
307 415 1.0
307 445 -1.0
308 265 -1.0
308 295 -1.0
308 325 -1.0
308 355 -1.0
308 385 -1.0
308 416 1.0
308 446 -1.0
309 270 -1.0
309 300 -1.0
309 330 -1.0
309 360 -1.0
309 390 -1.0
309 417 1.0
309 447 -1.0
310 275 -1.0
310 305 -1.0
310 335 -1.0
310 365 -1.0
310 395 -1.0
310 418 1.0
310 448 -1.0
311 280 -1.0
311 310 -1.0
311 340 -1.0
311 370 -1.0
311 400 -1.0
311 419 1.0
311 449 -1.0
312 285 -1.0
312 315 -1.0
312 345 -1.0
312 375 -1.0
312 405 -1.0
312 420 1.0
312 450 -1.0
313 261 -1.0
313 291 -1.0
313 321 -1.0
313 351 -1.0
313 381 -1.0
313 421 1.0
313 451 -1.0
314 266 -1.0
314 296 -1.0
314 326 -1.0
314 356 -1.0
314 386 -1.0
314 422 1.0
314 452 -1.0
315 271 -1.0
315 301 -1.0
315 331 -1.0
315 361 -1.0
315 391 -1.0
315 423 1.0
315 453 -1.0
316 276 -1.0
316 306 -1.0
316 336 -1.0
316 366 -1.0
316 396 -1.0
316 424 1.0
316 454 -1.0
317 281 -1.0
317 311 -1.0
317 341 -1.0
317 371 -1.0
317 401 -1.0
317 425 1.0
317 455 -1.0
318 286 -1.0
318 316 -1.0
318 346 -1.0
318 376 -1.0
318 406 -1.0
318 426 1.0
318 456 -1.0
319 262 -1.0
319 292 -1.0
319 322 -1.0
319 352 -1.0
319 382 -1.0
319 427 1.0
319 457 -1.0
320 267 -1.0
320 297 -1.0
320 327 -1.0
320 357 -1.0
320 387 -1.0
320 428 1.0
320 458 -1.0
321 272 -1.0
321 302 -1.0
321 332 -1.0
321 362 -1.0
321 392 -1.0
321 429 1.0
321 459 -1.0
322 277 -1.0
322 307 -1.0
322 337 -1.0
322 367 -1.0
322 397 -1.0
322 430 1.0
322 460 -1.0
323 282 -1.0
323 312 -1.0
323 342 -1.0
323 372 -1.0
323 402 -1.0
323 431 1.0
323 461 -1.0
324 287 -1.0
324 317 -1.0
324 347 -1.0
324 377 -1.0
324 407 -1.0
324 432 1.0
324 462 -1.0
325 263 -1.0
325 293 -1.0
325 323 -1.0
325 353 -1.0
325 383 -1.0
325 433 1.0
325 463 -1.0
326 268 -1.0
326 298 -1.0
326 328 -1.0
326 358 -1.0
326 388 -1.0
326 434 1.0
326 464 -1.0
327 273 -1.0
327 303 -1.0
327 333 -1.0
327 363 -1.0
327 393 -1.0
327 435 1.0
327 465 -1.0
328 278 -1.0
328 308 -1.0
328 338 -1.0
328 368 -1.0
328 398 -1.0
328 436 1.0
328 466 -1.0
329 283 -1.0
329 313 -1.0
329 343 -1.0
329 373 -1.0
329 403 -1.0
329 437 1.0
329 467 -1.0
330 288 -1.0
330 318 -1.0
330 348 -1.0
330 378 -1.0
330 408 -1.0
330 438 1.0
330 468 -1.0
331 469 1.0
331 470 1.0
331 471 1.0
331 472 1.0
331 473 1.0
331 474 1.0
332 475 1.0
332 476 1.0
332 477 1.0
332 478 1.0
332 479 1.0
332 480 1.0
333 481 1.0
333 482 1.0
333 483 1.0
333 484 1.0
333 485 1.0
333 486 1.0
334 487 1.0
334 488 1.0
334 489 1.0
334 490 1.0
334 491 1.0
334 492 1.0
335 493 1.0
335 494 1.0
335 495 1.0
335 496 1.0
335 497 1.0
335 498 1.0
336 66 -100.0
336 67 1.0
336 103 1.0
336 133 1.0
336 163 1.0
336 199 1.0
336 439 1.0
336 445 1.0
336 451 1.0
336 457 1.0
336 463 1.0
337 66 -100.0
337 73 1.0
337 139 1.0
337 169 1.0
337 205 1.0
337 440 1.0
337 446 1.0
337 452 1.0
337 458 1.0
337 464 1.0
338 66 -100.0
338 79 1.0
338 109 1.0
338 145 1.0
338 175 1.0
338 211 1.0
338 441 1.0
338 447 1.0
338 453 1.0
338 459 1.0
338 465 1.0
339 66 -100.0
339 85 1.0
339 115 1.0
339 151 1.0
339 181 1.0
339 217 1.0
339 442 1.0
339 448 1.0
339 454 1.0
339 460 1.0
339 466 1.0
340 66 -100.0
340 91 1.0
340 121 1.0
340 157 1.0
340 187 1.0
340 223 1.0
340 443 1.0
340 449 1.0
340 455 1.0
340 461 1.0
340 467 1.0
341 66 -100.0
341 97 1.0
341 127 1.0
341 193 1.0
341 444 1.0
341 450 1.0
341 456 1.0
341 462 1.0
341 468 1.0
342 259 -1.0
343 264 -1.0
344 269 -1.0
345 274 -1.0
346 279 -1.0
347 284 -1.0
348 289 -1.0
349 294 -1.0
350 299 -1.0
351 304 -1.0
352 309 -1.0
353 314 -1.0
354 319 -1.0
355 324 -1.0
356 329 -1.0
357 334 -1.0
358 339 -1.0
359 344 -1.0
360 349 -1.0
361 354 -1.0
362 359 -1.0
363 364 -1.0
364 369 -1.0
365 374 -1.0
366 379 -1.0
367 384 -1.0
368 389 -1.0
369 394 -1.0
370 399 -1.0
371 404 -1.0
372 260 -1.0
373 265 -1.0
374 270 -1.0
375 275 -1.0
376 280 -1.0
377 285 -1.0
378 290 -1.0
379 295 -1.0
380 300 -1.0
381 305 -1.0
382 310 -1.0
383 315 -1.0
384 320 -1.0
385 325 -1.0
386 330 -1.0
387 335 -1.0
388 340 -1.0
389 345 -1.0
390 350 -1.0
391 355 -1.0
392 360 -1.0
393 365 -1.0
394 370 -1.0
395 375 -1.0
396 380 -1.0
397 385 -1.0
398 390 -1.0
399 395 -1.0
400 400 -1.0
401 405 -1.0
402 261 -1.0
403 266 -1.0
404 271 -1.0
405 276 -1.0
406 281 -1.0
407 286 -1.0
408 291 -1.0
409 296 -1.0
410 301 -1.0
411 306 -1.0
412 311 -1.0
413 316 -1.0
414 321 -1.0
415 326 -1.0
416 331 -1.0
417 336 -1.0
418 341 -1.0
419 346 -1.0
420 351 -1.0
421 356 -1.0
422 361 -1.0
423 366 -1.0
424 371 -1.0
425 376 -1.0
426 381 -1.0
427 386 -1.0
428 391 -1.0
429 396 -1.0
430 401 -1.0
431 406 -1.0
432 262 -1.0
433 267 -1.0
434 272 -1.0
435 277 -1.0
436 282 -1.0
437 287 -1.0
438 292 -1.0
439 297 -1.0
440 302 -1.0
441 307 -1.0
442 312 -1.0
443 317 -1.0
444 322 -1.0
445 327 -1.0
446 332 -1.0
447 337 -1.0
448 342 -1.0
449 347 -1.0
450 352 -1.0
451 357 -1.0
452 362 -1.0
453 367 -1.0
454 372 -1.0
455 377 -1.0
456 382 -1.0
457 387 -1.0
458 392 -1.0
459 397 -1.0
460 402 -1.0
461 407 -1.0
462 263 -1.0
463 268 -1.0
464 273 -1.0
465 278 -1.0
466 283 -1.0
467 288 -1.0
468 293 -1.0
469 298 -1.0
470 303 -1.0
471 308 -1.0
472 313 -1.0
473 318 -1.0
474 323 -1.0
475 328 -1.0
476 333 -1.0
477 338 -1.0
478 343 -1.0
479 348 -1.0
480 353 -1.0
481 358 -1.0
482 363 -1.0
483 368 -1.0
484 373 -1.0
485 378 -1.0
486 383 -1.0
487 388 -1.0
488 393 -1.0
489 398 -1.0
490 403 -1.0
491 408 -1.0
492 439 -1.0
493 440 -1.0
494 441 -1.0
495 442 -1.0
496 443 -1.0
497 444 -1.0
498 445 -1.0
499 446 -1.0
500 447 -1.0
501 448 -1.0
502 449 -1.0
503 450 -1.0
504 451 -1.0
505 452 -1.0
506 453 -1.0
507 454 -1.0
508 455 -1.0
509 456 -1.0
510 457 -1.0
511 458 -1.0
512 459 -1.0
513 460 -1.0
514 461 -1.0
515 462 -1.0
516 463 -1.0
517 464 -1.0
518 465 -1.0
519 466 -1.0
520 467 -1.0
521 468 -1.0
522 36 -1.0
523 41 -1.0
524 46 -1.0
525 51 -1.0
526 56 -1.0
527 37 -1.0
528 42 -1.0
529 47 -1.0
530 52 -1.0
531 57 -1.0
532 38 -1.0
533 43 -1.0
534 48 -1.0
535 53 -1.0
536 58 -1.0
537 39 -1.0
538 44 -1.0
539 49 -1.0
540 54 -1.0
541 59 -1.0
542 40 -1.0
543 45 -1.0
544 50 -1.0
545 55 -1.0
546 60 -1.0
547 61 -1.0
548 62 -1.0
549 63 -1.0
550 64 -1.0
551 65 -1.0
1.79769313486232E+308 # value for infinity
0.0 # default left-hand-side value
78 # number of non-default left-hand-sides
1 -19.0
2 -7.0
3 -8.0
4 -6.0
5 -17.0
17 -20900.0
18 -9500.0
19 -9500.0
20 -3800.0
21 -15200.0
22 -1900.0
23 -280.0
24 -700.0
25 -2100.0
26 -6370.0
27 -1400.0
28 -1600.0
29 -1760.0
30 -1600.0
31 -4000.0
32 -1200.0
33 -360.0
34 -3060.0
35 -3000.0
36 -1200.0
37 -4680.0
38 -600.0
39 -6800.0
40 -2890.0
41 -1700.0
42 -5100.0
43 -15300.0
236 1.0
237 1.0
238 1.0
239 1.0
240 1.0
241 -1.79769313486232E+308
242 -1.79769313486232E+308
243 -1.79769313486232E+308
244 -1.79769313486232E+308
245 -1.79769313486232E+308
246 -1.79769313486232E+308
247 -1.79769313486232E+308
248 -1.79769313486232E+308
249 -1.79769313486232E+308
250 -1.79769313486232E+308
251 -1.79769313486232E+308
252 -1.79769313486232E+308
253 -1.79769313486232E+308
254 -1.79769313486232E+308
255 -1.79769313486232E+308
256 -1.79769313486232E+308
257 -1.79769313486232E+308
258 -1.79769313486232E+308
259 -1.79769313486232E+308
260 -1.79769313486232E+308
261 -1.79769313486232E+308
262 -1.79769313486232E+308
263 -1.79769313486232E+308
264 -1.79769313486232E+308
265 -1.79769313486232E+308
266 -1.79769313486232E+308
267 -1.79769313486232E+308
268 -1.79769313486232E+308
269 -1.79769313486232E+308
270 -1.79769313486232E+308
331 1.0
332 1.0
333 1.0
334 1.0
335 1.0
336 -1.79769313486232E+308
337 -1.79769313486232E+308
338 -1.79769313486232E+308
339 -1.79769313486232E+308
340 -1.79769313486232E+308
341 -1.79769313486232E+308
0.0 # default right-hand-side value
42 # number of non-default right-hand-sides
1 -19.0
2 -7.0
3 -8.0
4 -6.0
5 -17.0
17 -20900.0
18 -9500.0
19 -9500.0
20 -3800.0
21 -15200.0
22 -1900.0
23 -280.0
24 -700.0
25 -2100.0
26 -6370.0
27 -1400.0
28 -1600.0
29 -1760.0
30 -1600.0
31 -4000.0
32 -1200.0
33 -360.0
34 -3060.0
35 -3000.0
36 -1200.0
37 -4680.0
38 -600.0
39 -6800.0
40 -2890.0
41 -1700.0
42 -5100.0
43 -15300.0
236 1.0
237 1.0
238 1.0
239 1.0
240 1.0
331 1.0
332 1.0
333 1.0
334 1.0
335 1.0
0.0 # default variable lower bound value
0 # number of non-default variable lower bounds
1000000.0 # default variable upper bound value
0 # number of non-default variable upper bounds
0.0 # default variable primal value in starting point
0 # number of non-default variable primal values in starting point
0.0 # default constraint dual value in starting point
0 # number of non-default constraint dual values in starting point
0.0 # default variable bound dual value in starting point
0 # number of non-default variable bound dual values in starting point
0 # number of non-default variable names
0 # number of non-default constraint names
